p cnf 386 460
19 6 -9 21 22 0
19 6 -9 21 -22 0
19 6 -9 -21 23 0
19 6 -9 -21 -23 0
19 3 4 24 25 0
19 3 4 24 -25 0
19 3 4 -24 26 0
19 3 4 -24 -26 0
-11 -2 17 27 28 0
-11 -2 17 27 -28 0
-11 -2 17 -27 29 0
-11 -2 17 -27 -29 0
1 -7 6 30 31 0
1 -7 6 30 -31 0
1 -7 6 -30 32 0
1 -7 6 -30 -32 0
10 -12 -8 33 34 0
10 -12 -8 33 -34 0
10 -12 -8 -33 35 0
10 -12 -8 -33 -35 0
8 1 -4 36 37 0
8 1 -4 36 -37 0
8 1 -4 -36 38 0
8 1 -4 -36 -38 0
-8 4 19 39 40 0
-8 4 19 39 -40 0
-8 4 19 -39 41 0
-8 4 19 -39 -41 0
-2 6 19 42 43 0
-2 6 19 42 -43 0
-2 6 19 -42 44 0
-2 6 19 -42 -44 0
-15 9 -13 45 46 0
-15 9 -13 45 -46 0
-15 9 -13 -45 47 0
-15 9 -13 -45 -47 0
-10 17 11 48 49 0
-10 17 11 48 -49 0
-10 17 11 -48 50 0
-10 17 11 -48 -50 0
-12 14 7 51 52 0
-12 14 7 51 -52 0
-12 14 7 -51 53 0
-12 14 7 -51 -53 0
-10 8 2 54 55 0
-10 8 2 54 -55 0
-10 8 2 -54 56 0
-10 8 2 -54 -56 0
20 -8 -17 57 58 0
20 -8 -17 57 -58 0
20 -8 -17 -57 59 0
20 -8 -17 -57 -59 0
-10 8 11 60 61 0
-10 8 11 60 -61 0
-10 8 11 -60 62 0
-10 8 11 -60 -62 0
14 18 -20 63 64 0
14 18 -20 63 -64 0
14 18 -20 -63 65 0
14 18 -20 -63 -65 0
-10 -3 15 66 67 0
-10 -3 15 66 -67 0
-10 -3 15 -66 68 0
-10 -3 15 -66 -68 0
6 1 -20 69 70 0
6 1 -20 69 -70 0
6 1 -20 -69 71 0
6 1 -20 -69 -71 0
-17 -6 20 72 73 0
-17 -6 20 72 -73 0
-17 -6 20 -72 74 0
-17 -6 20 -72 -74 0
19 7 -6 75 76 0
19 7 -6 75 -76 0
19 7 -6 -75 77 0
19 7 -6 -75 -77 0
2 -4 -19 78 79 0
2 -4 -19 78 -79 0
2 -4 -19 -78 80 0
2 -4 -19 -78 -80 0
15 -6 -10 81 82 0
15 -6 -10 81 -82 0
15 -6 -10 -81 83 0
15 -6 -10 -81 -83 0
-7 17 -15 84 85 0
-7 17 -15 84 -85 0
-7 17 -15 -84 86 0
-7 17 -15 -84 -86 0
13 11 3 87 88 0
13 11 3 87 -88 0
13 11 3 -87 89 0
13 11 3 -87 -89 0
-13 7 6 90 91 0
-13 7 6 90 -91 0
-13 7 6 -90 92 0
-13 7 6 -90 -92 0
-3 -5 12 93 94 0
-3 -5 12 93 -94 0
-3 -5 12 -93 95 0
-3 -5 12 -93 -95 0
-9 -1 -16 96 97 0
-9 -1 -16 96 -97 0
-9 -1 -16 -96 98 0
-9 -1 -16 -96 -98 0
-3 -8 -5 99 100 0
-3 -8 -5 99 -100 0
-3 -8 -5 -99 101 0
-3 -8 -5 -99 -101 0
11 -4 -14 102 103 0
11 -4 -14 102 -103 0
11 -4 -14 -102 104 0
11 -4 -14 -102 -104 0
3 19 1 105 106 0
3 19 1 105 -106 0
3 19 1 -105 107 0
3 19 1 -105 -107 0
-4 9 19 108 109 0
-4 9 19 108 -109 0
-4 9 19 -108 110 0
-4 9 19 -108 -110 0
6 -5 -1 111 112 0
6 -5 -1 111 -112 0
6 -5 -1 -111 113 0
6 -5 -1 -111 -113 0
-4 -16 -2 114 115 0
-4 -16 -2 114 -115 0
-4 -16 -2 -114 116 0
-4 -16 -2 -114 -116 0
1 -4 7 117 118 0
1 -4 7 117 -118 0
1 -4 7 -117 119 0
1 -4 7 -117 -119 0
-13 -14 1 120 121 0
-13 -14 1 120 -121 0
-13 -14 1 -120 122 0
-13 -14 1 -120 -122 0
-17 6 -7 123 124 0
-17 6 -7 123 -124 0
-17 6 -7 -123 125 0
-17 6 -7 -123 -125 0
-19 14 13 126 127 0
-19 14 13 126 -127 0
-19 14 13 -126 128 0
-19 14 13 -126 -128 0
3 12 -20 129 130 0
3 12 -20 129 -130 0
3 12 -20 -129 131 0
3 12 -20 -129 -131 0
18 -9 -17 132 133 0
18 -9 -17 132 -133 0
18 -9 -17 -132 134 0
18 -9 -17 -132 -134 0
5 11 6 135 136 0
5 11 6 135 -136 0
5 11 6 -135 137 0
5 11 6 -135 -137 0
-13 -1 -10 138 139 0
-13 -1 -10 138 -139 0
-13 -1 -10 -138 140 0
-13 -1 -10 -138 -140 0
11 -13 12 141 142 0
11 -13 12 141 -142 0
11 -13 12 -141 143 0
11 -13 12 -141 -143 0
7 -15 13 144 145 0
7 -15 13 144 -145 0
7 -15 13 -144 146 0
7 -15 13 -144 -146 0
-19 17 9 147 148 0
-19 17 9 147 -148 0
-19 17 9 -147 149 0
-19 17 9 -147 -149 0
-8 5 18 150 151 0
-8 5 18 150 -151 0
-8 5 18 -150 152 0
-8 5 18 -150 -152 0
17 2 -3 153 154 0
17 2 -3 153 -154 0
17 2 -3 -153 155 0
17 2 -3 -153 -155 0
-5 -12 9 156 157 0
-5 -12 9 156 -157 0
-5 -12 9 -156 158 0
-5 -12 9 -156 -158 0
18 1 -16 159 160 0
18 1 -16 159 -160 0
18 1 -16 -159 161 0
18 1 -16 -159 -161 0
-11 6 -12 162 163 0
-11 6 -12 162 -163 0
-11 6 -12 -162 164 0
-11 6 -12 -162 -164 0
7 9 17 165 166 0
7 9 17 165 -166 0
7 9 17 -165 167 0
7 9 17 -165 -167 0
6 18 7 168 169 0
6 18 7 168 -169 0
6 18 7 -168 170 0
6 18 7 -168 -170 0
-4 9 -19 171 172 0
-4 9 -19 171 -172 0
-4 9 -19 -171 173 0
-4 9 -19 -171 -173 0
12 -3 15 174 175 0
12 -3 15 174 -175 0
12 -3 15 -174 176 0
12 -3 15 -174 -176 0
-2 3 7 177 178 0
-2 3 7 177 -178 0
-2 3 7 -177 179 0
-2 3 7 -177 -179 0
6 -8 -16 180 181 0
6 -8 -16 180 -181 0
6 -8 -16 -180 182 0
6 -8 -16 -180 -182 0
-8 18 -15 183 184 0
-8 18 -15 183 -184 0
-8 18 -15 -183 185 0
-8 18 -15 -183 -185 0
2 9 -8 186 187 0
2 9 -8 186 -187 0
2 9 -8 -186 188 0
2 9 -8 -186 -188 0
14 -13 16 189 190 0
14 -13 16 189 -190 0
14 -13 16 -189 191 0
14 -13 16 -189 -191 0
-10 -2 16 192 193 0
-10 -2 16 192 -193 0
-10 -2 16 -192 194 0
-10 -2 16 -192 -194 0
2 -19 -4 195 196 0
2 -19 -4 195 -196 0
2 -19 -4 -195 197 0
2 -19 -4 -195 -197 0
-7 10 5 198 199 0
-7 10 5 198 -199 0
-7 10 5 -198 200 0
-7 10 5 -198 -200 0
1 16 7 201 202 0
1 16 7 201 -202 0
1 16 7 -201 203 0
1 16 7 -201 -203 0
-14 -4 -9 204 205 0
-14 -4 -9 204 -205 0
-14 -4 -9 -204 206 0
-14 -4 -9 -204 -206 0
-16 -1 -14 207 208 0
-16 -1 -14 207 -208 0
-16 -1 -14 -207 209 0
-16 -1 -14 -207 -209 0
-12 -10 -16 210 211 0
-12 -10 -16 210 -211 0
-12 -10 -16 -210 212 0
-12 -10 -16 -210 -212 0
-6 -7 1 213 214 0
-6 -7 1 213 -214 0
-6 -7 1 -213 215 0
-6 -7 1 -213 -215 0
17 20 -5 216 217 0
17 20 -5 216 -217 0
17 20 -5 -216 218 0
17 20 -5 -216 -218 0
-4 15 17 219 220 0
-4 15 17 219 -220 0
-4 15 17 -219 221 0
-4 15 17 -219 -221 0
11 -3 -9 222 223 0
11 -3 -9 222 -223 0
11 -3 -9 -222 224 0
11 -3 -9 -222 -224 0
-2 6 9 225 226 0
-2 6 9 225 -226 0
-2 6 9 -225 227 0
-2 6 9 -225 -227 0
8 -6 -15 228 229 0
8 -6 -15 228 -229 0
8 -6 -15 -228 230 0
8 -6 -15 -228 -230 0
18 -13 -12 231 232 0
18 -13 -12 231 -232 0
18 -13 -12 -231 233 0
18 -13 -12 -231 -233 0
-15 -20 -7 234 235 0
-15 -20 -7 234 -235 0
-15 -20 -7 -234 236 0
-15 -20 -7 -234 -236 0
20 3 -17 237 238 0
20 3 -17 237 -238 0
20 3 -17 -237 239 0
20 3 -17 -237 -239 0
-7 9 -16 240 241 0
-7 9 -16 240 -241 0
-7 9 -16 -240 242 0
-7 9 -16 -240 -242 0
-4 14 -2 243 244 0
-4 14 -2 243 -244 0
-4 14 -2 -243 245 0
-4 14 -2 -243 -245 0
11 20 10 246 247 0
11 20 10 246 -247 0
11 20 10 -246 248 0
11 20 10 -246 -248 0
-14 17 -5 249 250 0
-14 17 -5 249 -250 0
-14 17 -5 -249 251 0
-14 17 -5 -249 -251 0
-14 -7 19 252 253 0
-14 -7 19 252 -253 0
-14 -7 19 -252 254 0
-14 -7 19 -252 -254 0
-1 -2 -14 255 256 0
-1 -2 -14 255 -256 0
-1 -2 -14 -255 257 0
-1 -2 -14 -255 -257 0
-13 -1 -14 258 259 0
-13 -1 -14 258 -259 0
-13 -1 -14 -258 260 0
-13 -1 -14 -258 -260 0
-10 -14 1 261 262 0
-10 -14 1 261 -262 0
-10 -14 1 -261 263 0
-10 -14 1 -261 -263 0
4 -12 10 264 265 0
4 -12 10 264 -265 0
4 -12 10 -264 266 0
4 -12 10 -264 -266 0
17 -6 4 267 268 0
17 -6 4 267 -268 0
17 -6 4 -267 269 0
17 -6 4 -267 -269 0
9 -2 3 270 271 0
9 -2 3 270 -271 0
9 -2 3 -270 272 0
9 -2 3 -270 -272 0
-18 -19 15 273 274 0
-18 -19 15 273 -274 0
-18 -19 15 -273 275 0
-18 -19 15 -273 -275 0
2 -7 -3 276 277 0
2 -7 -3 276 -277 0
2 -7 -3 -276 278 0
2 -7 -3 -276 -278 0
-8 2 10 279 280 0
-8 2 10 279 -280 0
-8 2 10 -279 281 0
-8 2 10 -279 -281 0
2 -14 -6 282 283 0
2 -14 -6 282 -283 0
2 -14 -6 -282 284 0
2 -14 -6 -282 -284 0
-17 -15 -2 285 286 0
-17 -15 -2 285 -286 0
-17 -15 -2 -285 287 0
-17 -15 -2 -285 -287 0
-12 -10 1 288 289 0
-12 -10 1 288 -289 0
-12 -10 1 -288 290 0
-12 -10 1 -288 -290 0
14 -1 -16 291 292 0
14 -1 -16 291 -292 0
14 -1 -16 -291 293 0
14 -1 -16 -291 -293 0
294 295 297 301 309 0
294 295 297 301 -309 0
294 295 297 -301 310 0
294 295 297 -301 -310 0
294 295 -297 302 311 0
294 295 -297 302 -311 0
294 295 -297 -302 312 0
294 295 -297 -302 -312 0
294 -295 298 303 313 0
294 -295 298 303 -313 0
294 -295 298 -303 314 0
294 -295 298 -303 -314 0
294 -295 -298 304 315 0
294 -295 -298 304 -315 0
294 -295 -298 -304 316 0
294 -295 -298 -304 -316 0
-294 296 299 305 317 0
-294 296 299 305 -317 0
-294 296 299 -305 318 0
-294 296 299 -305 -318 0
-294 296 -299 306 319 0
-294 296 -299 306 -319 0
-294 296 -299 -306 320 0
-294 296 -299 -306 -320 0
-294 -296 300 307 321 0
-294 -296 300 307 -321 0
-294 -296 300 -307 322 0
-294 -296 300 -307 -322 0
-294 -296 -300 308 323 0
-294 -296 -300 308 -323 0
-294 -296 -300 -308 324 0
-294 -296 -300 -308 -324 0
325 326 328 332 340 0
325 326 328 332 -340 0
325 326 328 -332 341 0
325 326 328 -332 -341 0
325 326 -328 333 342 0
325 326 -328 333 -342 0
325 326 -328 -333 343 0
325 326 -328 -333 -343 0
325 -326 329 334 344 0
325 -326 329 334 -344 0
325 -326 329 -334 345 0
325 -326 329 -334 -345 0
325 -326 -329 335 346 0
325 -326 -329 335 -346 0
325 -326 -329 -335 347 0
325 -326 -329 -335 -347 0
-325 327 330 336 348 0
-325 327 330 336 -348 0
-325 327 330 -336 349 0
-325 327 330 -336 -349 0
-325 327 -330 337 350 0
-325 327 -330 337 -350 0
-325 327 -330 -337 351 0
-325 327 -330 -337 -351 0
-325 -327 331 338 352 0
-325 -327 331 338 -352 0
-325 -327 331 -338 353 0
-325 -327 331 -338 -353 0
-325 -327 -331 339 354 0
-325 -327 -331 339 -354 0
-325 -327 -331 -339 355 0
-325 -327 -331 -339 -355 0
356 357 359 363 371 0
356 357 359 363 -371 0
356 357 359 -363 372 0
356 357 359 -363 -372 0
356 357 -359 364 373 0
356 357 -359 364 -373 0
356 357 -359 -364 374 0
356 357 -359 -364 -374 0
356 -357 360 365 375 0
356 -357 360 365 -375 0
356 -357 360 -365 376 0
356 -357 360 -365 -376 0
356 -357 -360 366 377 0
356 -357 -360 366 -377 0
356 -357 -360 -366 378 0
356 -357 -360 -366 -378 0
-356 358 361 367 379 0
-356 358 361 367 -379 0
-356 358 361 -367 380 0
-356 358 361 -367 -380 0
-356 358 -361 368 381 0
-356 358 -361 368 -381 0
-356 358 -361 -368 382 0
-356 358 -361 -368 -382 0
-356 -358 362 369 383 0
-356 -358 362 369 -383 0
-356 -358 362 -369 384 0
-356 -358 362 -369 -384 0
-356 -358 -362 370 385 0
-356 -358 -362 370 -385 0
-356 -358 -362 -370 386 0
-356 -358 -362 -370 -386 0

